1449
1   1   0    54   0 4 12 20 28 36 33 25 17 9 1 0
1   2   0    52   0 15 23 31 39 59 67 75 40 32 24 16 37 29 21 13 0
1   3   0    56   0 5 8 7 14 6 0
1   4   0    0    0 0
1   5   0    54   0 2 10 18 26 34 35 27 19 11 3 0
2   1   0    51   0 46 54 62 79 71 63 55 47 0
2   2   0    57   0 41 49 57 65 73 38 30 22 74 66 51 43 0
2   3   0    0    0 0
2   4   0    48   0 44 42 45 48 0
2   5   0    60   0 53 61 69 77 80 72 64 56 70 78 76 68 60 52 58 50 0